% seed = 2291781

mint = 61;
% maxt = 227;

nActs = 42;
dur = [0,7,7,3,3,6,4,4,6,2,9,3,3,1,10,10,8,9,9,8,6,3,2,5,8,2,4,4,7,9,7,4,1,9,9,5,6,5,7,3,9,0];

nSkills = 4;
sreq = [| 0,0,0,0,
	| 3,4,0,5,
	| 0,6,5,5,
	| 4,3,0,4,
	| 7,0,7,2,
	| 2,0,4,5,
	| 5,3,6,0,
	| 1,5,0,3,
	| 7,0,1,6,
	| 2,0,6,1,
	| 0,3,3,6,
	| 4,6,0,7,
	| 4,7,7,0,
	| 1,0,4,4,
	| 4,0,5,3,
	| 0,4,4,6,
	| 7,0,4,4,
	| 3,2,3,0,
	| 2,0,3,4,
	| 4,0,3,6,
	| 6,4,2,0,
	| 4,0,7,5,
	| 2,3,0,5,
	| 3,0,3,6,
	| 0,4,3,5,
	| 2,0,2,1,
	| 3,3,4,0,
	| 5,0,2,4,
	| 3,2,0,7,
	| 4,5,0,3,
	| 4,3,4,0,
	| 4,0,4,5,
	| 2,2,4,0,
	| 2,4,0,3,
	| 6,5,0,7,
	| 0,4,1,4,
	| 2,0,4,5,
	| 4,4,2,0,
	| 3,0,7,2,
	| 4,0,7,6,
	| 1,4,0,6,
	| 0,0,0,0, |];

nResources = 45;
mastery = [| false,true,false,false,
	| false,true,false,false,
	| false,true,true,false,
	| false,false,false,true,
	| false,false,true,false,
	| false,true,true,false,
	| true,false,false,true,
	| true,false,true,true,
	| false,false,true,false,
	| true,false,true,false,
	| false,true,true,false,
	| false,true,true,true,
	| true,false,true,true,
	| false,true,false,false,
	| true,true,false,false,
	| false,true,false,true,
	| true,false,false,true,
	| true,true,false,true,
	| false,false,false,true,
	| false,true,true,true,
	| false,false,true,false,
	| true,false,true,true,
	| false,true,false,false,
	| true,false,false,true,
	| false,false,true,false,
	| true,true,false,true,
	| true,true,true,false,
	| true,false,false,false,
	| false,false,false,true,
	| false,true,true,false,
	| true,true,false,true,
	| false,true,true,true,
	| true,true,false,false,
	| true,false,false,false,
	| false,false,true,true,
	| true,false,false,false,
	| true,true,false,true,
	| true,false,false,false,
	| true,false,true,true,
	| true,false,true,false,
	| false,true,true,true,
	| false,false,false,true,
	| true,true,false,true,
	| false,true,false,false,
	| false,true,true,true, |];

nPrecs = 61;
pred = [1,1,1,2,2,2,3,3,3,4,4,5,5,6,6,7,7,8,8,8,9,10,10,11,12,12,13,14,15,16,17,17,18,19,19,19,20,21,22,23,24,25,25,25,26,27,28,29,30,30,31,32,33,34,35,36,37,38,39,40,41];
succ = [2,3,4,9,7,8,27,5,14,21,6,12,15,29,30,25,10,18,13,22,17,11,20,15,24,16,19,21,30,23,35,36,23,25,26,24,40,26,30,39,31,33,28,32,39,34,36,40,41,37,37,38,39,36,41,38,38,41,42,42,42];

nUnrels = 562;
unpred = [2,2,2,2,2,2,2,2,2,2,2,3,3,3,3,3,3,3,3,3,3,3,3,3,3,3,3,3,3,3,3,4,4,4,4,4,4,4,4,4,4,4,4,4,4,4,4,4,4,4,4,4,4,4,4,4,4,4,5,5,5,5,5,5,5,5,5,5,5,5,5,5,5,5,5,5,5,5,5,5,5,5,5,6,6,6,6,6,6,6,6,6,6,6,6,6,6,6,6,6,6,6,6,6,6,6,6,6,6,6,6,6,7,7,7,7,7,7,7,7,7,7,7,7,7,7,7,7,7,7,7,8,8,8,8,8,8,8,8,8,8,8,8,8,8,8,9,9,9,9,9,9,9,9,9,9,9,9,9,9,9,9,9,9,9,9,9,9,9,9,9,9,9,10,10,10,10,10,10,10,10,10,10,10,10,10,10,10,10,10,10,10,10,10,10,10,11,11,11,11,11,11,11,11,11,11,11,11,11,11,11,11,11,11,11,11,11,11,11,11,11,12,12,12,12,12,12,12,12,12,12,12,12,12,12,12,12,12,12,12,12,12,13,13,13,13,13,13,13,13,13,13,13,13,13,13,13,14,14,14,14,14,14,14,14,14,14,14,14,14,14,14,14,14,14,14,14,14,14,14,14,15,15,15,15,15,15,15,15,15,15,15,15,15,15,15,15,15,15,15,15,15,15,16,16,16,16,16,16,16,16,16,16,16,16,16,16,16,16,16,16,16,16,16,16,16,17,17,17,17,17,17,17,17,17,17,17,17,17,17,17,17,17,17,17,17,18,18,18,18,18,18,18,18,18,18,18,18,18,18,18,18,18,18,18,18,18,19,19,19,19,19,19,19,19,19,19,20,20,20,20,20,20,20,20,20,20,20,20,20,20,20,20,20,20,20,20,21,21,21,21,21,21,21,21,21,21,21,21,21,21,21,21,21,21,22,22,22,22,22,22,22,22,22,22,22,22,22,22,22,23,23,23,23,23,23,23,23,23,23,23,23,23,23,23,23,23,24,24,24,24,24,24,24,24,24,24,24,24,24,25,25,25,25,25,25,25,25,25,26,26,26,26,26,26,26,26,26,26,26,26,26,26,27,27,27,27,27,27,27,27,27,27,28,28,28,28,28,28,28,28,28,28,29,29,29,29,29,29,29,29,29,29,29,30,30,30,30,30,30,30,30,31,31,31,31,31,31,31,32,32,32,32,32,32,32,33,33,33,33,33,33,33,34,34,34,34,35,35,35,35,35,36,36,36,37,37,38,38,39,39,40];
unsucc = [3,4,5,6,12,14,16,21,27,29,34,4,6,7,8,9,10,11,13,17,18,19,20,22,25,28,29,32,33,35,40,5,7,8,9,10,11,12,13,14,15,16,17,18,19,20,22,23,24,25,27,28,31,32,33,34,35,36,6,7,8,9,10,11,13,14,17,18,19,20,21,22,25,26,27,28,29,32,33,34,35,36,40,7,8,9,10,11,12,13,14,15,16,17,18,19,20,21,22,23,24,25,26,27,28,31,32,33,34,35,36,39,8,9,12,13,14,16,17,18,19,21,22,23,24,26,27,29,31,34,35,9,10,11,12,14,15,16,17,20,21,27,29,34,35,40,10,11,12,13,14,15,16,18,19,20,21,22,23,24,25,26,27,28,29,30,31,32,33,34,37,39,40,12,13,14,16,17,18,19,21,22,23,24,25,26,27,28,29,31,32,33,34,35,36,39,12,13,14,16,17,18,19,20,21,22,23,24,25,26,27,28,29,31,32,33,34,35,36,39,40,13,14,15,17,18,19,20,21,22,25,26,27,28,29,30,32,33,34,35,36,40,14,15,16,17,18,20,21,22,23,27,29,30,34,35,40,15,16,17,18,19,20,22,23,24,25,27,28,29,30,31,32,33,34,35,36,37,38,40,41,16,17,18,19,20,21,22,23,24,25,26,27,28,29,31,32,33,34,35,36,39,40,17,18,19,20,21,22,24,25,26,27,28,29,30,31,32,33,34,35,36,37,38,40,41,18,19,20,21,22,23,24,25,26,27,28,29,30,31,32,33,34,37,39,40,19,20,21,22,24,25,26,27,28,29,30,31,32,33,34,35,36,37,38,40,41,20,21,22,23,27,29,30,34,35,40,21,22,23,24,25,26,27,28,29,30,31,32,33,34,35,36,37,38,39,41,22,23,24,25,27,28,29,30,31,32,33,34,35,36,37,38,40,41,23,24,25,26,27,28,29,31,32,33,34,35,36,39,40,24,25,26,27,28,29,30,31,32,33,34,35,36,37,38,40,41,25,26,27,28,29,30,32,33,34,35,36,39,40,26,27,29,30,31,34,35,37,40,27,28,29,30,31,32,33,34,35,36,37,38,40,41,28,29,30,31,32,33,35,37,39,40,29,30,31,32,33,34,35,37,39,40,30,31,32,33,34,35,36,37,38,39,41,31,32,33,34,35,36,39,40,32,33,34,35,36,39,40,33,34,35,36,37,39,40,34,35,36,37,38,40,41,35,37,39,40,36,37,38,39,40,37,39,40,39,40,39,40,40,41,41];

USEFUL_RES = [{},
	{1,2,3,4,6,7,8,10,11,12,13,14,15,16,17,18,19,20,22,23,24,26,27,28,29,30,31,32,33,34,35,36,37,38,39,40,41,42,43,44,45},
	{1,2,3,4,5,6,7,8,9,10,11,12,13,14,15,16,17,18,19,20,21,22,23,24,25,26,27,29,30,31,32,33,35,37,39,40,41,42,43,44,45},
	{1,2,3,4,6,7,8,10,11,12,13,14,15,16,17,18,19,20,22,23,24,26,27,28,29,30,31,32,33,34,35,36,37,38,39,40,41,42,43,44,45},
	{3,4,5,6,7,8,9,10,11,12,13,15,16,17,18,19,20,21,22,24,25,26,27,28,29,30,31,32,33,34,35,36,37,38,39,40,41,42,43,45},
	{3,4,5,6,7,8,9,10,11,12,13,15,16,17,18,19,20,21,22,24,25,26,27,28,29,30,31,32,33,34,35,36,37,38,39,40,41,42,43,45},
	{1,2,3,5,6,7,8,9,10,11,12,13,14,15,16,17,18,20,21,22,23,24,25,26,27,28,30,31,32,33,34,35,36,37,38,39,40,41,43,44,45},
	{1,2,3,4,6,7,8,10,11,12,13,14,15,16,17,18,19,20,22,23,24,26,27,28,29,30,31,32,33,34,35,36,37,38,39,40,41,42,43,44,45},
	{3,4,5,6,7,8,9,10,11,12,13,15,16,17,18,19,20,21,22,24,25,26,27,28,29,30,31,32,33,34,35,36,37,38,39,40,41,42,43,45},
	{3,4,5,6,7,8,9,10,11,12,13,15,16,17,18,19,20,21,22,24,25,26,27,28,29,30,31,32,33,34,35,36,37,38,39,40,41,42,43,45},
	{1,2,3,4,5,6,7,8,9,10,11,12,13,14,15,16,17,18,19,20,21,22,23,24,25,26,27,29,30,31,32,33,35,37,39,40,41,42,43,44,45},
	{1,2,3,4,6,7,8,10,11,12,13,14,15,16,17,18,19,20,22,23,24,26,27,28,29,30,31,32,33,34,35,36,37,38,39,40,41,42,43,44,45},
	{1,2,3,5,6,7,8,9,10,11,12,13,14,15,16,17,18,20,21,22,23,24,25,26,27,28,30,31,32,33,34,35,36,37,38,39,40,41,43,44,45},
	{3,4,5,6,7,8,9,10,11,12,13,15,16,17,18,19,20,21,22,24,25,26,27,28,29,30,31,32,33,34,35,36,37,38,39,40,41,42,43,45},
	{3,4,5,6,7,8,9,10,11,12,13,15,16,17,18,19,20,21,22,24,25,26,27,28,29,30,31,32,33,34,35,36,37,38,39,40,41,42,43,45},
	{1,2,3,4,5,6,7,8,9,10,11,12,13,14,15,16,17,18,19,20,21,22,23,24,25,26,27,29,30,31,32,33,35,37,39,40,41,42,43,44,45},
	{3,4,5,6,7,8,9,10,11,12,13,15,16,17,18,19,20,21,22,24,25,26,27,28,29,30,31,32,33,34,35,36,37,38,39,40,41,42,43,45},
	{1,2,3,5,6,7,8,9,10,11,12,13,14,15,16,17,18,20,21,22,23,24,25,26,27,28,30,31,32,33,34,35,36,37,38,39,40,41,43,44,45},
	{3,4,5,6,7,8,9,10,11,12,13,15,16,17,18,19,20,21,22,24,25,26,27,28,29,30,31,32,33,34,35,36,37,38,39,40,41,42,43,45},
	{3,4,5,6,7,8,9,10,11,12,13,15,16,17,18,19,20,21,22,24,25,26,27,28,29,30,31,32,33,34,35,36,37,38,39,40,41,42,43,45},
	{1,2,3,5,6,7,8,9,10,11,12,13,14,15,16,17,18,20,21,22,23,24,25,26,27,28,30,31,32,33,34,35,36,37,38,39,40,41,43,44,45},
	{3,4,5,6,7,8,9,10,11,12,13,15,16,17,18,19,20,21,22,24,25,26,27,28,29,30,31,32,33,34,35,36,37,38,39,40,41,42,43,45},
	{1,2,3,4,6,7,8,10,11,12,13,14,15,16,17,18,19,20,22,23,24,26,27,28,29,30,31,32,33,34,35,36,37,38,39,40,41,42,43,44,45},
	{3,4,5,6,7,8,9,10,11,12,13,15,16,17,18,19,20,21,22,24,25,26,27,28,29,30,31,32,33,34,35,36,37,38,39,40,41,42,43,45},
	{1,2,3,4,5,6,7,8,9,10,11,12,13,14,15,16,17,18,19,20,21,22,23,24,25,26,27,29,30,31,32,33,35,37,39,40,41,42,43,44,45},
	{3,4,5,6,7,8,9,10,11,12,13,15,16,17,18,19,20,21,22,24,25,26,27,28,29,30,31,32,33,34,35,36,37,38,39,40,41,42,43,45},
	{1,2,3,5,6,7,8,9,10,11,12,13,14,15,16,17,18,20,21,22,23,24,25,26,27,28,30,31,32,33,34,35,36,37,38,39,40,41,43,44,45},
	{3,4,5,6,7,8,9,10,11,12,13,15,16,17,18,19,20,21,22,24,25,26,27,28,29,30,31,32,33,34,35,36,37,38,39,40,41,42,43,45},
	{1,2,3,4,6,7,8,10,11,12,13,14,15,16,17,18,19,20,22,23,24,26,27,28,29,30,31,32,33,34,35,36,37,38,39,40,41,42,43,44,45},
	{1,2,3,4,6,7,8,10,11,12,13,14,15,16,17,18,19,20,22,23,24,26,27,28,29,30,31,32,33,34,35,36,37,38,39,40,41,42,43,44,45},
	{1,2,3,5,6,7,8,9,10,11,12,13,14,15,16,17,18,20,21,22,23,24,25,26,27,28,30,31,32,33,34,35,36,37,38,39,40,41,43,44,45},
	{3,4,5,6,7,8,9,10,11,12,13,15,16,17,18,19,20,21,22,24,25,26,27,28,29,30,31,32,33,34,35,36,37,38,39,40,41,42,43,45},
	{1,2,3,5,6,7,8,9,10,11,12,13,14,15,16,17,18,20,21,22,23,24,25,26,27,28,30,31,32,33,34,35,36,37,38,39,40,41,43,44,45},
	{1,2,3,4,6,7,8,10,11,12,13,14,15,16,17,18,19,20,22,23,24,26,27,28,29,30,31,32,33,34,35,36,37,38,39,40,41,42,43,44,45},
	{1,2,3,4,6,7,8,10,11,12,13,14,15,16,17,18,19,20,22,23,24,26,27,28,29,30,31,32,33,34,35,36,37,38,39,40,41,42,43,44,45},
	{1,2,3,4,5,6,7,8,9,10,11,12,13,14,15,16,17,18,19,20,21,22,23,24,25,26,27,29,30,31,32,33,35,37,39,40,41,42,43,44,45},
	{3,4,5,6,7,8,9,10,11,12,13,15,16,17,18,19,20,21,22,24,25,26,27,28,29,30,31,32,33,34,35,36,37,38,39,40,41,42,43,45},
	{1,2,3,5,6,7,8,9,10,11,12,13,14,15,16,17,18,20,21,22,23,24,25,26,27,28,30,31,32,33,34,35,36,37,38,39,40,41,43,44,45},
	{3,4,5,6,7,8,9,10,11,12,13,15,16,17,18,19,20,21,22,24,25,26,27,28,29,30,31,32,33,34,35,36,37,38,39,40,41,42,43,45},
	{3,4,5,6,7,8,9,10,11,12,13,15,16,17,18,19,20,21,22,24,25,26,27,28,29,30,31,32,33,34,35,36,37,38,39,40,41,42,43,45},
	{1,2,3,4,6,7,8,10,11,12,13,14,15,16,17,18,19,20,22,23,24,26,27,28,29,30,31,32,33,34,35,36,37,38,39,40,41,42,43,44,45},
	{}];

POTENTIAL_ACT = [{2,3,4,7,8,11,12,13,16,18,21,23,25,27,29,30,31,33,34,35,36,38,41},
	{2,3,4,7,8,11,12,13,16,18,21,23,25,27,29,30,31,33,34,35,36,38,41},
	{2,3,4,5,6,7,8,9,10,11,12,13,14,15,16,17,18,19,20,21,22,23,24,25,26,27,28,29,30,31,32,33,34,35,36,37,38,39,40,41},
	{2,3,4,5,6,8,9,10,11,12,14,15,16,17,19,20,22,23,24,25,26,28,29,30,32,34,35,36,37,39,40,41},
	{3,5,6,7,9,10,11,13,14,15,16,17,18,19,20,21,22,24,25,26,27,28,31,32,33,36,37,38,39,40},
	{2,3,4,5,6,7,8,9,10,11,12,13,14,15,16,17,18,19,20,21,22,23,24,25,26,27,28,29,30,31,32,33,34,35,36,37,38,39,40,41},
	{2,3,4,5,6,7,8,9,10,11,12,13,14,15,16,17,18,19,20,21,22,23,24,25,26,27,28,29,30,31,32,33,34,35,36,37,38,39,40,41},
	{2,3,4,5,6,7,8,9,10,11,12,13,14,15,16,17,18,19,20,21,22,23,24,25,26,27,28,29,30,31,32,33,34,35,36,37,38,39,40,41},
	{3,5,6,7,9,10,11,13,14,15,16,17,18,19,20,21,22,24,25,26,27,28,31,32,33,36,37,38,39,40},
	{2,3,4,5,6,7,8,9,10,11,12,13,14,15,16,17,18,19,20,21,22,23,24,25,26,27,28,29,30,31,32,33,34,35,36,37,38,39,40,41},
	{2,3,4,5,6,7,8,9,10,11,12,13,14,15,16,17,18,19,20,21,22,23,24,25,26,27,28,29,30,31,32,33,34,35,36,37,38,39,40,41},
	{2,3,4,5,6,7,8,9,10,11,12,13,14,15,16,17,18,19,20,21,22,23,24,25,26,27,28,29,30,31,32,33,34,35,36,37,38,39,40,41},
	{2,3,4,5,6,7,8,9,10,11,12,13,14,15,16,17,18,19,20,21,22,23,24,25,26,27,28,29,30,31,32,33,34,35,36,37,38,39,40,41},
	{2,3,4,7,8,11,12,13,16,18,21,23,25,27,29,30,31,33,34,35,36,38,41},
	{2,3,4,5,6,7,8,9,10,11,12,13,14,15,16,17,18,19,20,21,22,23,24,25,26,27,28,29,30,31,32,33,34,35,36,37,38,39,40,41},
	{2,3,4,5,6,7,8,9,10,11,12,13,14,15,16,17,18,19,20,21,22,23,24,25,26,27,28,29,30,31,32,33,34,35,36,37,38,39,40,41},
	{2,3,4,5,6,7,8,9,10,11,12,13,14,15,16,17,18,19,20,21,22,23,24,25,26,27,28,29,30,31,32,33,34,35,36,37,38,39,40,41},
	{2,3,4,5,6,7,8,9,10,11,12,13,14,15,16,17,18,19,20,21,22,23,24,25,26,27,28,29,30,31,32,33,34,35,36,37,38,39,40,41},
	{2,3,4,5,6,8,9,10,11,12,14,15,16,17,19,20,22,23,24,25,26,28,29,30,32,34,35,36,37,39,40,41},
	{2,3,4,5,6,7,8,9,10,11,12,13,14,15,16,17,18,19,20,21,22,23,24,25,26,27,28,29,30,31,32,33,34,35,36,37,38,39,40,41},
	{3,5,6,7,9,10,11,13,14,15,16,17,18,19,20,21,22,24,25,26,27,28,31,32,33,36,37,38,39,40},
	{2,3,4,5,6,7,8,9,10,11,12,13,14,15,16,17,18,19,20,21,22,23,24,25,26,27,28,29,30,31,32,33,34,35,36,37,38,39,40,41},
	{2,3,4,7,8,11,12,13,16,18,21,23,25,27,29,30,31,33,34,35,36,38,41},
	{2,3,4,5,6,7,8,9,10,11,12,13,14,15,16,17,18,19,20,21,22,23,24,25,26,27,28,29,30,31,32,33,34,35,36,37,38,39,40,41},
	{3,5,6,7,9,10,11,13,14,15,16,17,18,19,20,21,22,24,25,26,27,28,31,32,33,36,37,38,39,40},
	{2,3,4,5,6,7,8,9,10,11,12,13,14,15,16,17,18,19,20,21,22,23,24,25,26,27,28,29,30,31,32,33,34,35,36,37,38,39,40,41},
	{2,3,4,5,6,7,8,9,10,11,12,13,14,15,16,17,18,19,20,21,22,23,24,25,26,27,28,29,30,31,32,33,34,35,36,37,38,39,40,41},
	{2,4,5,6,7,8,9,10,12,13,14,15,17,18,19,20,21,22,23,24,26,27,28,29,30,31,32,33,34,35,37,38,39,40,41},
	{2,3,4,5,6,8,9,10,11,12,14,15,16,17,19,20,22,23,24,25,26,28,29,30,32,34,35,36,37,39,40,41},
	{2,3,4,5,6,7,8,9,10,11,12,13,14,15,16,17,18,19,20,21,22,23,24,25,26,27,28,29,30,31,32,33,34,35,36,37,38,39,40,41},
	{2,3,4,5,6,7,8,9,10,11,12,13,14,15,16,17,18,19,20,21,22,23,24,25,26,27,28,29,30,31,32,33,34,35,36,37,38,39,40,41},
	{2,3,4,5,6,7,8,9,10,11,12,13,14,15,16,17,18,19,20,21,22,23,24,25,26,27,28,29,30,31,32,33,34,35,36,37,38,39,40,41},
	{2,3,4,5,6,7,8,9,10,11,12,13,14,15,16,17,18,19,20,21,22,23,24,25,26,27,28,29,30,31,32,33,34,35,36,37,38,39,40,41},
	{2,4,5,6,7,8,9,10,12,13,14,15,17,18,19,20,21,22,23,24,26,27,28,29,30,31,32,33,34,35,37,38,39,40,41},
	{2,3,4,5,6,7,8,9,10,11,12,13,14,15,16,17,18,19,20,21,22,23,24,25,26,27,28,29,30,31,32,33,34,35,36,37,38,39,40,41},
	{2,4,5,6,7,8,9,10,12,13,14,15,17,18,19,20,21,22,23,24,26,27,28,29,30,31,32,33,34,35,37,38,39,40,41},
	{2,3,4,5,6,7,8,9,10,11,12,13,14,15,16,17,18,19,20,21,22,23,24,25,26,27,28,29,30,31,32,33,34,35,36,37,38,39,40,41},
	{2,4,5,6,7,8,9,10,12,13,14,15,17,18,19,20,21,22,23,24,26,27,28,29,30,31,32,33,34,35,37,38,39,40,41},
	{2,3,4,5,6,7,8,9,10,11,12,13,14,15,16,17,18,19,20,21,22,23,24,25,26,27,28,29,30,31,32,33,34,35,36,37,38,39,40,41},
	{2,3,4,5,6,7,8,9,10,11,12,13,14,15,16,17,18,19,20,21,22,23,24,25,26,27,28,29,30,31,32,33,34,35,36,37,38,39,40,41},
	{2,3,4,5,6,7,8,9,10,11,12,13,14,15,16,17,18,19,20,21,22,23,24,25,26,27,28,29,30,31,32,33,34,35,36,37,38,39,40,41},
	{2,3,4,5,6,8,9,10,11,12,14,15,16,17,19,20,22,23,24,25,26,28,29,30,32,34,35,36,37,39,40,41},
	{2,3,4,5,6,7,8,9,10,11,12,13,14,15,16,17,18,19,20,21,22,23,24,25,26,27,28,29,30,31,32,33,34,35,36,37,38,39,40,41},
	{2,3,4,7,8,11,12,13,16,18,21,23,25,27,29,30,31,33,34,35,36,38,41},
	{2,3,4,5,6,7,8,9,10,11,12,13,14,15,16,17,18,19,20,21,22,23,24,25,26,27,28,29,30,31,32,33,34,35,36,37,38,39,40,41}];
